\ This file has been generated by DOcplex
\ ENCODING=ISO-8859-1
\Problem name: random_problem.lp

Minimize
 obj: 0.006474457764 x0 + 0.003237228882 x1 + 0.001618614441 x2
      - 0.001507468863 x3 - 0.000753734431 x4 - 0.000376867216 x5 + [
      0.006801270350 x0^2 + 0.006801270350 x0*x1 + 0.003400635175 x0*x2
      + 0.003673546724 x0*x3 + 0.001836773362 x0*x4 + 0.000918386681 x0*x5
      + 0.001700317587 x1^2 + 0.001700317587 x1*x2 + 0.001836773362 x1*x3
      + 0.000918386681 x1*x4 + 0.000459193341 x1*x5 + 0.000425079397 x2^2
      + 0.000918386681 x2*x3 + 0.000459193341 x2*x4 + 0.000229596670 x2*x5
      + 0.003058661080 x3^2 + 0.003058661080 x3*x4 + 0.001529330540 x3*x5
      + 0.000764665270 x4^2 + 0.000764665270 x4*x5 + 0.000191166317 x5^2 ]/2
Subject To
 c0: 4 x0 + 2 x1 + x2 + 4 x3 + 2 x4 + x5 = 7

Bounds
 0 <= x0 <= 1
 0 <= x1 <= 1
 0 <= x2 <= 1
 0 <= x3 <= 1
 0 <= x4 <= 1
 0 <= x5 <= 1

Binaries
 x0 x1 x2 x3 x4 x5
End
